c NeuroCodeBench 2.0 CNF formula with verdict Unsat
p cnf 5 15
-1 3 5 0
1 -2 -3 -5 -4 0
1 2 -4 5 0
1 -2 3 -4 0
-1 -3 5 -4 0
1 2 -4 -5 0
-1 3 -5 4 0
1 -2 -3 -5 4 0
1 -2 -3 5 -4 0
-1 -3 5 4 0
1 -2 -3 5 4 0
-1 3 -5 -4 0
1 -2 3 4 0
-1 -3 -5 0
1 2 4 0
